cliques=[{1,0,2},{1,29,44,2,22},{1,29,44,2,22},{26,17,11,6,3,5},{14,20,4},{26,17,11,6,5,3},{26,17,11,6,3,5},{45,7,28,12},{9,37,8,49},{9,37,8,49},{48,23,10},{26,17,11,6,3,5},{41,30,12},{13,43,25},{14,32},{41,47,15,36,33},{30,16,28,12},{26,17,11,6,3,5},{18,13,19},{18,13,19},{14,20,4},{47,27,21},{1,29,44,2,22},{13,43,23,24},{29,44,2,24,22},{13,43,25},{26,17,11,6,3,5},{47,27,15,36,33},{30,28,16,12},{1,29,44,2,22},{41,30,15,36},{38,36,40,31},{41,47,32,15},{47,41,15,36,33},{37,8,34},{9,37,49,46,35},{41,47,15,36,33},{9,37,8,49},{27,15,38,36,33},{39},{38,36,40,31},{41,47,32,15},{27,42,33},{13,43,25},{1,29,44,2,22},{45,7,28,12},{9,37,49,46,35},{47,41,32,15},{48,23,10},{9,37,8,49}];
nr_cliques=50;
